p cnf 7230 17
-6749 -6750 0
-6659 -6711 -6747 0
-6657 -6709 -6745 0
-4290 -6705 -6743 0
6659 -6748 0
6657 -6746 0
4290 -6744 0
6747 6748 0
6745 6746 0
6743 6744 0
6711 -6748 0
6709 -6746 0
6705 -6744 0
-4448 -6719 6750 0
6741 6742 0
6719 -6750 0
4448 -6750 0
